Route #1: 66 117 108 92 134 38 103 10 113 63 112 26 75 94 3 76 129 105 138 34 121 30 4
Route #2: 25 36 16 32 7 19 85 35 28 133 47 96 62 81 100 11 74 44 64 61 45 89 12 54
Route #3: 78 17 2 41 86 5 107 8 43 114 110 53 102 6 31 98 79 60 72 111 1 87 48 93 116
Route #4: 126 136 115 124 70 40 59 135 58 67 46 101 20 52 88 51 49 50
Route #5: 118 65 90 18 125 33 104 132 23 21 123 82 137 55 142 83 56 91 120 97 109
Route #6: 9 73 57 95 139 14 37 122 77 22 119 80 39 29 42 131 69 140 141 15 27 106 24 99 71 130
Route #7: 13 127 84 128 68
